************************************************************************
file with basedata            : md220_.bas
initial value random generator: 1100235293
************************************************************************
projects                      :  1
jobs (incl. supersource/sink ):  18
horizon                       :  116
RESOURCES
  - renewable                 :  2   R
  - nonrenewable              :  2   N
  - doubly constrained        :  0   D
************************************************************************
PROJECT INFORMATION:
pronr.  #jobs rel.date duedate tardcost  MPM-Time
    1     16      0       22        0       22
************************************************************************
PRECEDENCE RELATIONS:
jobnr.    #modes  #successors   successors
   1        1          3           2   3   4
   2        3          3           6  12  16
   3        3          3           8   9  12
   4        3          2           5   8
   5        3          3           6  10  11
   6        3          2           7  13
   7        3          2          14  17
   8        3          1          16
   9        3          2          10  11
  10        3          3          13  15  16
  11        3          2          13  14
  12        3          2          14  17
  13        3          1          17
  14        3          1          15
  15        3          1          18
  16        3          1          18
  17        3          1          18
  18        1          0        
************************************************************************
REQUESTS/DURATIONS:
jobnr. mode duration  R 1  R 2  N 1  N 2
------------------------------------------------------------------------
  1      1     0       0    0    0    0
  2      1     2       0    4    0    9
         2     3      10    0    0    5
         3     7       0    4    0    5
  3      1     1       0    8    0    7
         2     2       0    4    3    0
         3     4       2    0    0    7
  4      1     2       4    0    0    8
         2     3       2    0    0    5
         3     5       0    7    6    0
  5      1     5       7    0    0    6
         2     5       7    0    5    0
         3     8       0   10    0    6
  6      1     4       0    6    5    0
         2     8       9    0    0    6
         3    10       1    0    0    2
  7      1     1       9    0    3    0
         2     2       8    0    0    5
         3     3       7    0    0    4
  8      1     2      10    0    0    4
         2     4       0    4    0    3
         3     6       6    0    5    0
  9      1     2       0    9    7    0
         2     7       0    5    0    5
         3    10       0    5    6    0
 10      1     1       6    0    0    9
         2     5       0    8    0    5
         3     7       1    0    4    0
 11      1     8       0    8    5    0
         2     9      10    0    0   10
         3    10       9    0    0    9
 12      1     2       0    4    0    6
         2     8       5    0    0    6
         3     9       0    2    0    5
 13      1     5       3    0    0    7
         2     8       3    0    3    0
         3    10       0    2    0    6
 14      1     5       0    6    4    0
         2     5       0    7    0    6
         3     5       5    0    5    0
 15      1     2       0    7    0    3
         2     7       0    3   10    0
         3    10       8    0    5    0
 16      1     3       6    0    0    7
         2     5       1    0    4    0
         3     8       0    6    0    4
 17      1     2      10    0   10    0
         2     3       0    4    5    0
         3     4       9    0    5    0
 18      1     0       0    0    0    0
************************************************************************
RESOURCEAVAILABILITIES:
  R 1  R 2  N 1  N 2
   30   22   75   98
************************************************************************
